p cnf 806 1608
a 631 625 571 565 524 460 454 470 466 481 477 493 487 504 497 591 306 312 615 294 372 300 366 330 360 336 354 318 102 108 90 96 78 84 66 72 54 60 193 205 528 534 518 380 508 514 97 109 121 133 145 157 169 181 635 605 390 538 601 544 621 575 384 400 394 325 313 585 581 277 265 301 289 229 217 253 241 641 645 651 324 42 48 655 18 24 30 36 1 6 12 361 8 337 349 26 38 3 14 50 62 376 444 450 550 404 410 414 420 424 430 434 440 158 146 134 122 110 98 86 74 182 170 288 282 264 258 276 270 240 234 252 246 665 73 85 661 2 13 7 49 61 25 37 242 254 266 278 194 206 218 230 342 348 290 302 156 150 144 138 132 126 120 114 326 314 350 338 362 168 162 561 611 595 554 198 204 210 216 174 180 186 192 222 228 0
d 471 109 110 0
d 555 217 218 0
d 498 146 145 0
d 546 205 206 0
e 4 5 9 10 11 15 16 17 19 20 21 22 23 27 28 29 31 32 33 34 35 39 40 41 43 44 45 46 47 51 52 53 55 56 57 58 59 63 64 65 67 68 69 70 71 75 76 77 79 80 81 82 83 87 88 89 91 92 93 94 95 99 100 101 103 104 105 106 107 111 112 113 115 116 117 118 119 123 124 125 127 128 129 130 131 135 136 137 139 140 141 142 143 147 148 149 151 152 153 154 155 159 160 161 163 164 165 166 167 171 172 173 175 176 177 178 179 183 184 185 187 188 189 190 191 195 196 197 199 200 201 202 203 207 208 209 211 212 213 214 215 219 220 221 223 224 225 226 227 231 232 233 235 236 237 238 239 243 244 245 247 248 249 250 251 255 256 257 259 260 261 262 263 267 268 269 271 272 273 274 275 279 280 281 283 284 285 286 287 291 292 293 295 296 297 298 299 303 304 305 307 308 309 310 311 315 316 317 319 320 321 322 323 327 328 329 331 332 333 334 335 339 340 341 343 344 345 346 347 351 352 353 355 356 357 358 359 363 364 365 367 368 369 370 371 373 374 375 377 378 379 381 382 383 385 386 387 388 389 391 392 393 395 396 397 398 399 401 402 403 405 406 407 408 409 411 412 413 415 416 417 418 419 421 422 423 425 426 427 428 429 431 432 433 435 436 437 438 439 441 442 443 445 446 447 448 449 451 452 453 455 456 457 458 459 461 462 463 464 465 467 468 469 472 473 474 475 476 478 479 480 482 483 484 485 486 488 489 490 491 492 494 495 496 499 500 501 502 503 505 506 507 509 510 511 512 513 515 516 517 519 520 521 522 523 525 526 527 529 530 531 532 533 535 536 537 539 540 541 542 543 545 547 548 549 551 552 553 556 557 558 559 560 562 563 564 566 567 568 569 570 572 573 574 576 577 578 579 580 582 583 584 586 587 588 589 590 592 593 594 596 597 598 599 600 602 603 604 606 607 608 609 610 612 613 614 616 617 618 619 620 622 623 624 626 627 628 629 630 632 633 634 636 637 638 639 640 642 643 644 646 647 648 649 650 652 653 654 656 657 658 659 660 662 663 664 666 667 668 669 670 671 672 673 674 675 676 677 678 679 680 681 682 683 684 685 686 687 688 689 690 691 692 693 694 695 696 697 698 699 700 701 702 703 704 705 706 707 708 709 710 711 712 713 714 715 716 717 718 719 720 721 722 723 724 725 726 727 728 729 730 731 732 733 734 735 736 737 738 739 740 741 742 743 744 745 746 747 748 749 750 751 752 753 754 755 756 757 758 759 760 761 762 763 764 765 766 767 768 769 770 771 772 773 774 775 776 777 778 779 780 781 782 783 784 785 786 787 788 789 790 791 792 793 794 795 796 797 798 799 800 801 802 803 804 805 806 0
806 0
-806 670 805 0
-670 664 -669 0
-664 660 -663 0
-660 654 -659 0
-654 650 -653 0
-650 644 -649 0
-644 640 -643 0
-640 634 -639 0
-634 630 -633 0
-630 624 -629 0
-624 620 -623 0
-620 614 -619 0
-614 610 -613 0
-610 604 -609 0
-604 600 -603 0
-600 594 -599 0
-594 590 -593 0
-590 584 -589 0
-584 580 -583 0
-580 574 -579 0
-574 570 -573 0
-570 564 -569 0
-564 560 -563 0
-560 553 -559 0
-553 549 -552 0
-549 543 -548 0
-543 537 -542 0
-537 533 -536 0
-533 527 -532 0
-527 523 -526 0
-523 517 -522 0
-517 513 -516 0
-513 507 -512 0
-507 503 -506 0
-503 496 -502 0
-496 492 -495 0
-492 486 -491 0
-486 480 -485 0
-480 476 -479 0
-476 469 -475 0
-469 465 -468 0
-465 459 -464 0
-459 453 -458 0
-453 449 -452 0
-449 443 -448 0
-443 439 -442 0
-439 433 -438 0
-433 429 -432 0
-429 423 -428 0
-423 419 -422 0
-419 413 -418 0
-413 409 -412 0
-409 403 -408 0
-403 399 -402 0
-399 393 -398 0
-393 389 -392 0
-389 383 -388 0
-383 379 -382 0
-379 375 -378 0
-375 371 -374 0
-371 365 -370 0
-365 359 -364 0
-359 353 -358 0
-353 347 -352 0
-347 341 -346 0
-341 335 -340 0
-335 329 -334 0
-329 323 -328 0
-323 317 -322 0
-317 311 -316 0
-311 305 -310 0
-305 299 -304 0
-299 293 -298 0
-293 287 -292 0
-287 281 -286 0
-281 275 -280 0
-275 269 -274 0
-269 263 -268 0
-263 257 -262 0
-257 251 -256 0
-251 245 -250 0
-245 239 -244 0
-239 233 -238 0
-233 227 -232 0
-227 221 -226 0
-221 215 -220 0
-215 209 -214 0
-209 203 -208 0
-203 197 -202 0
-197 191 -196 0
-191 185 -190 0
-185 179 -184 0
-179 173 -178 0
-173 167 -172 0
-167 161 -166 0
-161 155 -160 0
-155 149 -154 0
-149 143 -148 0
-143 137 -142 0
-137 131 -136 0
-131 125 -130 0
-125 119 -124 0
-119 113 -118 0
-113 107 -112 0
-107 101 -106 0
-101 95 -100 0
-95 89 -94 0
-89 83 -88 0
-83 77 -82 0
-77 71 -76 0
-71 65 -70 0
-65 59 -64 0
-59 53 -58 0
-53 47 -52 0
-47 41 -46 0
-41 35 -40 0
-35 29 -34 0
-29 23 -28 0
-23 17 -22 0
-17 11 -16 0
-11 -5 -10 0
1 -4 5 0
-1 4 5 0
-4 -2 3 0
-4 2 -3 0
2 3 4 0
-2 -3 4 0
6 -9 10 0
-6 9 10 0
-9 -7 8 0
-9 7 -8 0
7 8 9 0
-7 -8 9 0
12 -15 16 0
-12 15 16 0
-15 -13 14 0
-15 13 -14 0
13 14 15 0
-13 -14 15 0
18 21 22 0
-18 -21 22 0
-19 20 21 0
19 -20 21 0
-19 -20 21 0
-1 -6 19 0
-2 -3 20 0
-21 19 20 0
-19 1 0
-19 6 0
-20 2 0
-20 3 0
24 -27 28 0
-24 27 28 0
-27 -25 26 0
-27 25 -26 0
25 26 27 0
-25 -26 27 0
30 33 34 0
-30 -33 34 0
-31 32 33 0
31 -32 33 0
-31 -32 33 0
-12 -18 31 0
-13 -14 32 0
-33 31 32 0
-31 12 0
-31 18 0
-32 13 0
-32 14 0
36 -39 40 0
-36 39 40 0
-39 -37 38 0
-39 37 -38 0
37 38 39 0
-37 -38 39 0
42 45 46 0
-42 -45 46 0
-43 44 45 0
43 -44 45 0
-43 -44 45 0
-24 -30 43 0
-25 -26 44 0
-45 43 44 0
-43 24 0
-43 30 0
-44 25 0
-44 26 0
48 -51 52 0
-48 51 52 0
-51 -49 50 0
-51 49 -50 0
49 50 51 0
-49 -50 51 0
54 57 58 0
-54 -57 58 0
-55 56 57 0
55 -56 57 0
-55 -56 57 0
-36 -42 55 0
-37 -38 56 0
-57 55 56 0
-55 36 0
-55 42 0
-56 37 0
-56 38 0
60 -63 64 0
-60 63 64 0
-63 -61 62 0
-63 61 -62 0
61 62 63 0
-61 -62 63 0
66 69 70 0
-66 -69 70 0
-67 68 69 0
67 -68 69 0
-67 -68 69 0
-48 -54 67 0
-49 -50 68 0
-69 67 68 0
-67 48 0
-67 54 0
-68 49 0
-68 50 0
72 -75 76 0
-72 75 76 0
-75 -73 74 0
-75 73 -74 0
73 74 75 0
-73 -74 75 0
78 81 82 0
-78 -81 82 0
-79 80 81 0
79 -80 81 0
-79 -80 81 0
-60 -66 79 0
-61 -62 80 0
-81 79 80 0
-79 60 0
-79 66 0
-80 61 0
-80 62 0
84 -87 88 0
-84 87 88 0
-87 -85 86 0
-87 85 -86 0
85 86 87 0
-85 -86 87 0
90 93 94 0
-90 -93 94 0
-91 92 93 0
91 -92 93 0
-91 -92 93 0
-72 -78 91 0
-73 -74 92 0
-93 91 92 0
-91 72 0
-91 78 0
-92 73 0
-92 74 0
96 -99 100 0
-96 99 100 0
-99 -97 98 0
-99 97 -98 0
97 98 99 0
-97 -98 99 0
102 105 106 0
-102 -105 106 0
-103 104 105 0
103 -104 105 0
-103 -104 105 0
-84 -90 103 0
-85 -86 104 0
-105 103 104 0
-103 84 0
-103 90 0
-104 85 0
-104 86 0
108 -111 112 0
-108 111 112 0
-111 -109 110 0
-111 109 -110 0
109 110 111 0
-109 -110 111 0
114 117 118 0
-114 -117 118 0
-115 116 117 0
115 -116 117 0
-115 -116 117 0
-96 -102 115 0
-97 -98 116 0
-117 115 116 0
-115 96 0
-115 102 0
-116 97 0
-116 98 0
120 -123 124 0
-120 123 124 0
-123 -121 122 0
-123 121 -122 0
121 122 123 0
-121 -122 123 0
126 129 130 0
-126 -129 130 0
-127 128 129 0
127 -128 129 0
-127 -128 129 0
-108 -114 127 0
-109 -110 128 0
-129 127 128 0
-127 108 0
-127 114 0
-128 109 0
-128 110 0
132 -135 136 0
-132 135 136 0
-135 -133 134 0
-135 133 -134 0
133 134 135 0
-133 -134 135 0
138 141 142 0
-138 -141 142 0
-139 140 141 0
139 -140 141 0
-139 -140 141 0
-120 -126 139 0
-121 -122 140 0
-141 139 140 0
-139 120 0
-139 126 0
-140 121 0
-140 122 0
144 -147 148 0
-144 147 148 0
-147 -145 146 0
-147 145 -146 0
145 146 147 0
-145 -146 147 0
150 153 154 0
-150 -153 154 0
-151 152 153 0
151 -152 153 0
-151 -152 153 0
-132 -138 151 0
-133 -134 152 0
-153 151 152 0
-151 132 0
-151 138 0
-152 133 0
-152 134 0
156 -159 160 0
-156 159 160 0
-159 -157 158 0
-159 157 -158 0
157 158 159 0
-157 -158 159 0
162 165 166 0
-162 -165 166 0
-163 164 165 0
163 -164 165 0
-163 -164 165 0
-144 -150 163 0
-145 -146 164 0
-165 163 164 0
-163 144 0
-163 150 0
-164 145 0
-164 146 0
168 -171 172 0
-168 171 172 0
-171 -169 170 0
-171 169 -170 0
169 170 171 0
-169 -170 171 0
174 177 178 0
-174 -177 178 0
-175 176 177 0
175 -176 177 0
-175 -176 177 0
-156 -162 175 0
-157 -158 176 0
-177 175 176 0
-175 156 0
-175 162 0
-176 157 0
-176 158 0
180 -183 184 0
-180 183 184 0
-183 -181 182 0
-183 181 -182 0
181 182 183 0
-181 -182 183 0
186 189 190 0
-186 -189 190 0
-187 188 189 0
187 -188 189 0
-187 -188 189 0
-168 -174 187 0
-169 -170 188 0
-189 187 188 0
-187 168 0
-187 174 0
-188 169 0
-188 170 0
192 -195 196 0
-192 195 196 0
-195 -193 194 0
-195 193 -194 0
193 194 195 0
-193 -194 195 0
198 201 202 0
-198 -201 202 0
-199 200 201 0
199 -200 201 0
-199 -200 201 0
-180 -186 199 0
-181 -182 200 0
-201 199 200 0
-199 180 0
-199 186 0
-200 181 0
-200 182 0
204 -207 208 0
-204 207 208 0
-207 -205 206 0
-207 205 -206 0
205 206 207 0
-205 -206 207 0
210 213 214 0
-210 -213 214 0
-211 212 213 0
211 -212 213 0
-211 -212 213 0
-192 -198 211 0
-193 -194 212 0
-213 211 212 0
-211 192 0
-211 198 0
-212 193 0
-212 194 0
216 -219 220 0
-216 219 220 0
-219 -217 218 0
-219 217 -218 0
217 218 219 0
-217 -218 219 0
222 225 226 0
-222 -225 226 0
-223 224 225 0
223 -224 225 0
-223 -224 225 0
-204 -210 223 0
-205 -206 224 0
-225 223 224 0
-223 204 0
-223 210 0
-224 205 0
-224 206 0
228 -231 232 0
-228 231 232 0
-231 -229 230 0
-231 229 -230 0
229 230 231 0
-229 -230 231 0
234 237 238 0
-234 -237 238 0
-235 236 237 0
235 -236 237 0
-235 -236 237 0
-216 -222 235 0
-217 -218 236 0
-237 235 236 0
-235 216 0
-235 222 0
-236 217 0
-236 218 0
240 -243 244 0
-240 243 244 0
-243 -241 242 0
-243 241 -242 0
241 242 243 0
-241 -242 243 0
246 249 250 0
-246 -249 250 0
-247 248 249 0
247 -248 249 0
-247 -248 249 0
-228 -234 247 0
-229 -230 248 0
-249 247 248 0
-247 228 0
-247 234 0
-248 229 0
-248 230 0
252 -255 256 0
-252 255 256 0
-255 -253 254 0
-255 253 -254 0
253 254 255 0
-253 -254 255 0
258 261 262 0
-258 -261 262 0
-259 260 261 0
259 -260 261 0
-259 -260 261 0
-240 -246 259 0
-241 -242 260 0
-261 259 260 0
-259 240 0
-259 246 0
-260 241 0
-260 242 0
264 -267 268 0
-264 267 268 0
-267 -265 266 0
-267 265 -266 0
265 266 267 0
-265 -266 267 0
270 273 274 0
-270 -273 274 0
-271 272 273 0
271 -272 273 0
-271 -272 273 0
-252 -258 271 0
-253 -254 272 0
-273 271 272 0
-271 252 0
-271 258 0
-272 253 0
-272 254 0
276 -279 280 0
-276 279 280 0
-279 -277 278 0
-279 277 -278 0
277 278 279 0
-277 -278 279 0
282 285 286 0
-282 -285 286 0
-283 284 285 0
283 -284 285 0
-283 -284 285 0
-264 -270 283 0
-265 -266 284 0
-285 283 284 0
-283 264 0
-283 270 0
-284 265 0
-284 266 0
288 -291 292 0
-288 291 292 0
-291 -289 290 0
-291 289 -290 0
289 290 291 0
-289 -290 291 0
294 297 298 0
-294 -297 298 0
-295 296 297 0
295 -296 297 0
-295 -296 297 0
-276 -282 295 0
-277 -278 296 0
-297 295 296 0
-295 276 0
-295 282 0
-296 277 0
-296 278 0
300 -303 304 0
-300 303 304 0
-303 -301 302 0
-303 301 -302 0
301 302 303 0
-301 -302 303 0
306 309 310 0
-306 -309 310 0
-307 308 309 0
307 -308 309 0
-307 -308 309 0
-288 -294 307 0
-289 -290 308 0
-309 307 308 0
-307 288 0
-307 294 0
-308 289 0
-308 290 0
312 -315 316 0
-312 315 316 0
-315 -313 314 0
-315 313 -314 0
313 314 315 0
-313 -314 315 0
318 321 322 0
-318 -321 322 0
-319 320 321 0
319 -320 321 0
-319 -320 321 0
-300 -306 319 0
-301 -302 320 0
-321 319 320 0
-319 300 0
-319 306 0
-320 301 0
-320 302 0
324 -327 328 0
-324 327 328 0
-327 -325 326 0
-327 325 -326 0
325 326 327 0
-325 -326 327 0
330 333 334 0
-330 -333 334 0
-331 332 333 0
331 -332 333 0
-331 -332 333 0
-312 -318 331 0
-313 -314 332 0
-333 331 332 0
-331 312 0
-331 318 0
-332 313 0
-332 314 0
336 -339 340 0
-336 339 340 0
-339 -337 338 0
-339 337 -338 0
337 338 339 0
-337 -338 339 0
342 345 346 0
-342 -345 346 0
-343 344 345 0
343 -344 345 0
-343 -344 345 0
-324 -330 343 0
-325 -326 344 0
-345 343 344 0
-343 324 0
-343 330 0
-344 325 0
-344 326 0
348 -351 352 0
-348 351 352 0
-351 -349 350 0
-351 349 -350 0
349 350 351 0
-349 -350 351 0
354 357 358 0
-354 -357 358 0
-355 356 357 0
355 -356 357 0
-355 -356 357 0
-336 -342 355 0
-337 -338 356 0
-357 355 356 0
-355 336 0
-355 342 0
-356 337 0
-356 338 0
360 -363 364 0
-360 363 364 0
-363 -361 362 0
-363 361 -362 0
361 362 363 0
-361 -362 363 0
366 369 370 0
-366 -369 370 0
-367 368 369 0
367 -368 369 0
-367 -368 369 0
-348 -354 367 0
-349 -350 368 0
-369 367 368 0
-367 348 0
-367 354 0
-368 349 0
-368 350 0
372 -373 374 0
-372 373 374 0
-373 -2 3 0
-373 2 -3 0
2 3 373 0
-2 -3 373 0
376 -377 378 0
-376 377 378 0
-377 -7 8 0
-377 7 -8 0
7 8 377 0
-7 -8 377 0
380 -381 382 0
-380 381 382 0
-381 -13 14 0
-381 13 -14 0
13 14 381 0
-13 -14 381 0
384 387 388 0
-384 -387 388 0
-385 386 387 0
385 -386 387 0
-385 -386 387 0
-372 -376 385 0
-2 -3 386 0
-387 385 386 0
-385 372 0
-385 376 0
-386 2 0
-386 3 0
390 -391 392 0
-390 391 392 0
-391 -25 26 0
-391 25 -26 0
25 26 391 0
-25 -26 391 0
394 397 398 0
-394 -397 398 0
-395 396 397 0
395 -396 397 0
-395 -396 397 0
-380 -384 395 0
-13 -14 396 0
-397 395 396 0
-395 380 0
-395 384 0
-396 13 0
-396 14 0
400 -401 402 0
-400 401 402 0
-401 -37 38 0
-401 37 -38 0
37 38 401 0
-37 -38 401 0
404 407 408 0
-404 -407 408 0
-405 406 407 0
405 -406 407 0
-405 -406 407 0
-390 -394 405 0
-25 -26 406 0
-407 405 406 0
-405 390 0
-405 394 0
-406 25 0
-406 26 0
410 -411 412 0
-410 411 412 0
-411 -49 50 0
-411 49 -50 0
49 50 411 0
-49 -50 411 0
414 417 418 0
-414 -417 418 0
-415 416 417 0
415 -416 417 0
-415 -416 417 0
-400 -404 415 0
-37 -38 416 0
-417 415 416 0
-415 400 0
-415 404 0
-416 37 0
-416 38 0
420 -421 422 0
-420 421 422 0
-421 -61 62 0
-421 61 -62 0
61 62 421 0
-61 -62 421 0
424 427 428 0
-424 -427 428 0
-425 426 427 0
425 -426 427 0
-425 -426 427 0
-410 -414 425 0
-49 -50 426 0
-427 425 426 0
-425 410 0
-425 414 0
-426 49 0
-426 50 0
430 -431 432 0
-430 431 432 0
-431 -73 74 0
-431 73 -74 0
73 74 431 0
-73 -74 431 0
434 437 438 0
-434 -437 438 0
-435 436 437 0
435 -436 437 0
-435 -436 437 0
-420 -424 435 0
-61 -62 436 0
-437 435 436 0
-435 420 0
-435 424 0
-436 61 0
-436 62 0
440 -441 442 0
-440 441 442 0
-441 -85 86 0
-441 85 -86 0
85 86 441 0
-85 -86 441 0
444 447 448 0
-444 -447 448 0
-445 446 447 0
445 -446 447 0
-445 -446 447 0
-430 -434 445 0
-73 -74 446 0
-447 445 446 0
-445 430 0
-445 434 0
-446 73 0
-446 74 0
450 -451 452 0
-450 451 452 0
-451 -97 98 0
-451 97 -98 0
97 98 451 0
-97 -98 451 0
454 457 458 0
-454 -457 458 0
-455 456 457 0
455 -456 457 0
-455 -456 457 0
-440 -444 455 0
-85 -86 456 0
-457 455 456 0
-455 440 0
-455 444 0
-456 85 0
-456 86 0
460 463 464 0
-460 -463 464 0
-461 462 463 0
461 -462 463 0
-461 -462 463 0
-450 -454 461 0
-97 -98 462 0
-463 461 462 0
-461 450 0
-461 454 0
-462 97 0
-462 98 0
466 -467 468 0
-466 467 468 0
-467 -121 122 0
-467 121 -122 0
121 122 467 0
-121 -122 467 0
470 474 475 0
-470 -474 475 0
-472 473 474 0
472 -473 474 0
-472 -473 474 0
-471 -460 472 0
-109 -110 473 0
-474 472 473 0
-472 471 0
-472 460 0
-473 109 0
-473 110 0
477 -478 479 0
-477 478 479 0
-478 -133 134 0
-478 133 -134 0
133 134 478 0
-133 -134 478 0
481 484 485 0
-481 -484 485 0
-482 483 484 0
482 -483 484 0
-482 -483 484 0
-466 -470 482 0
-121 -122 483 0
-484 482 483 0
-482 466 0
-482 470 0
-483 121 0
-483 122 0
487 490 491 0
-487 -490 491 0
-488 489 490 0
488 -489 490 0
-488 -489 490 0
-477 -481 488 0
-133 -134 489 0
-490 488 489 0
-488 477 0
-488 481 0
-489 133 0
-489 134 0
493 -494 495 0
-493 494 495 0
-494 -157 158 0
-494 157 -158 0
157 158 494 0
-157 -158 494 0
497 501 502 0
-497 -501 502 0
-499 500 501 0
499 -500 501 0
-499 -500 501 0
-498 -487 499 0
-145 -146 500 0
-501 499 500 0
-499 498 0
-499 487 0
-500 145 0
-500 146 0
504 -505 506 0
-504 505 506 0
-505 -169 170 0
-505 169 -170 0
169 170 505 0
-169 -170 505 0
508 511 512 0
-508 -511 512 0
-509 510 511 0
509 -510 511 0
-509 -510 511 0
-493 -497 509 0
-157 -158 510 0
-511 509 510 0
-509 493 0
-509 497 0
-510 157 0
-510 158 0
514 -515 516 0
-514 515 516 0
-515 -181 182 0
-515 181 -182 0
181 182 515 0
-181 -182 515 0
518 521 522 0
-518 -521 522 0
-519 520 521 0
519 -520 521 0
-519 -520 521 0
-504 -508 519 0
-169 -170 520 0
-521 519 520 0
-519 504 0
-519 508 0
-520 169 0
-520 170 0
524 -525 526 0
-524 525 526 0
-525 -193 194 0
-525 193 -194 0
193 194 525 0
-193 -194 525 0
528 531 532 0
-528 -531 532 0
-529 530 531 0
529 -530 531 0
-529 -530 531 0
-514 -518 529 0
-181 -182 530 0
-531 529 530 0
-529 514 0
-529 518 0
-530 181 0
-530 182 0
534 -535 536 0
-534 535 536 0
-535 -205 206 0
-535 205 -206 0
205 206 535 0
-205 -206 535 0
538 541 542 0
-538 -541 542 0
-539 540 541 0
539 -540 541 0
-539 -540 541 0
-524 -528 539 0
-193 -194 540 0
-541 539 540 0
-539 524 0
-539 528 0
-540 193 0
-540 194 0
544 547 548 0
-544 -547 548 0
-545 546 547 0
545 -546 547 0
-545 -546 547 0
-534 -538 545 0
-547 545 546 0
-545 534 0
-545 538 0
550 -551 552 0
-550 551 552 0
-551 -229 230 0
-551 229 -230 0
229 230 551 0
-229 -230 551 0
554 558 559 0
-554 -558 559 0
-556 557 558 0
556 -557 558 0
-556 -557 558 0
-555 -544 556 0
-217 -218 557 0
-558 556 557 0
-556 555 0
-556 544 0
-557 217 0
-557 218 0
561 -562 563 0
-561 562 563 0
-562 -241 242 0
-562 241 -242 0
241 242 562 0
-241 -242 562 0
565 568 569 0
-565 -568 569 0
-566 567 568 0
566 -567 568 0
-566 -567 568 0
-550 -554 566 0
-229 -230 567 0
-568 566 567 0
-566 550 0
-566 554 0
-567 229 0
-567 230 0
571 -572 573 0
-571 572 573 0
-572 -253 254 0
-572 253 -254 0
253 254 572 0
-253 -254 572 0
575 578 579 0
-575 -578 579 0
-576 577 578 0
576 -577 578 0
-576 -577 578 0
-561 -565 576 0
-241 -242 577 0
-578 576 577 0
-576 561 0
-576 565 0
-577 241 0
-577 242 0
581 -582 583 0
-581 582 583 0
-582 -265 266 0
-582 265 -266 0
265 266 582 0
-265 -266 582 0
585 588 589 0
-585 -588 589 0
-586 587 588 0
586 -587 588 0
-586 -587 588 0
-571 -575 586 0
-253 -254 587 0
-588 586 587 0
-586 571 0
-586 575 0
-587 253 0
-587 254 0
591 -592 593 0
-591 592 593 0
-592 -277 278 0
-592 277 -278 0
277 278 592 0
-277 -278 592 0
595 598 599 0
-595 -598 599 0
-596 597 598 0
596 -597 598 0
-596 -597 598 0
-581 -585 596 0
-265 -266 597 0
-598 596 597 0
-596 581 0
-596 585 0
-597 265 0
-597 266 0
601 -602 603 0
-601 602 603 0
-602 -289 290 0
-602 289 -290 0
289 290 602 0
-289 -290 602 0
605 608 609 0
-605 -608 609 0
-606 607 608 0
606 -607 608 0
-606 -607 608 0
-591 -595 606 0
-277 -278 607 0
-608 606 607 0
-606 591 0
-606 595 0
-607 277 0
-607 278 0
611 -612 613 0
-611 612 613 0
-612 -301 302 0
-612 301 -302 0
301 302 612 0
-301 -302 612 0
615 618 619 0
-615 -618 619 0
-616 617 618 0
616 -617 618 0
-616 -617 618 0
-601 -605 616 0
-289 -290 617 0
-618 616 617 0
-616 601 0
-616 605 0
-617 289 0
-617 290 0
621 -622 623 0
-621 622 623 0
-622 -313 314 0
-622 313 -314 0
313 314 622 0
-313 -314 622 0
625 628 629 0
-625 -628 629 0
-626 627 628 0
626 -627 628 0
-626 -627 628 0
-611 -615 626 0
-301 -302 627 0
-628 626 627 0
-626 611 0
-626 615 0
-627 301 0
-627 302 0
631 -632 633 0
-631 632 633 0
-632 -325 326 0
-632 325 -326 0
325 326 632 0
-325 -326 632 0
635 638 639 0
-635 -638 639 0
-636 637 638 0
636 -637 638 0
-636 -637 638 0
-621 -625 636 0
-313 -314 637 0
-638 636 637 0
-636 621 0
-636 625 0
-637 313 0
-637 314 0
641 -642 643 0
-641 642 643 0
-642 -337 338 0
-642 337 -338 0
337 338 642 0
-337 -338 642 0
645 648 649 0
-645 -648 649 0
-646 647 648 0
646 -647 648 0
-646 -647 648 0
-631 -635 646 0
-325 -326 647 0
-648 646 647 0
-646 631 0
-646 635 0
-647 325 0
-647 326 0
651 -652 653 0
-651 652 653 0
-652 -349 350 0
-652 349 -350 0
349 350 652 0
-349 -350 652 0
655 658 659 0
-655 -658 659 0
-656 657 658 0
656 -657 658 0
-656 -657 658 0
-641 -645 656 0
-337 -338 657 0
-658 656 657 0
-656 641 0
-656 645 0
-657 337 0
-657 338 0
661 -662 663 0
-661 662 663 0
-662 -361 362 0
-662 361 -362 0
361 362 662 0
-361 -362 662 0
665 668 669 0
-665 -668 669 0
-666 667 668 0
666 -667 668 0
-666 -667 668 0
-651 -655 666 0
-349 -350 667 0
-668 666 667 0
-666 651 0
-666 655 0
-667 349 0
-667 350 0
-805 797 0
-805 804 0
-797 793 0
-797 796 0
-793 789 0
-793 792 0
-789 785 0
-789 788 0
-785 781 0
-785 784 0
-781 777 0
-781 780 0
-777 773 0
-777 776 0
-773 769 0
-773 772 0
-769 765 0
-769 768 0
-765 761 0
-765 764 0
-761 757 0
-761 760 0
-757 753 0
-757 756 0
-753 749 0
-753 752 0
-749 745 0
-749 748 0
-745 741 0
-745 744 0
-741 737 0
-741 740 0
-737 733 0
-737 736 0
-733 729 0
-733 732 0
-729 725 0
-729 728 0
-725 721 0
-725 724 0
-721 717 0
-721 720 0
-717 713 0
-717 716 0
-713 709 0
-713 712 0
-709 705 0
-709 708 0
-705 701 0
-705 704 0
-701 697 0
-701 700 0
-697 693 0
-697 696 0
-693 689 0
-693 692 0
-689 685 0
-689 688 0
-685 681 0
-685 684 0
-681 677 0
-681 680 0
-677 673 0
-677 676 0
-673 -671 672 0
-673 671 -672 0
-671 7 0
-671 8 0
-672 7 0
-672 8 0
-7 -8 671 0
-7 -8 672 0
-676 674 -675 0
-676 -674 675 0
372 376 674 0
-372 -376 674 0
1 6 675 0
-1 -6 675 0
-674 -372 376 0
-674 372 -376 0
-675 -1 6 0
-675 1 -6 0
-680 678 -679 0
-680 -678 679 0
380 384 678 0
-380 -384 678 0
12 18 679 0
-12 -18 679 0
-678 -380 384 0
-678 380 -384 0
-679 -12 18 0
-679 12 -18 0
-684 682 -683 0
-684 -682 683 0
390 394 682 0
-390 -394 682 0
24 30 683 0
-24 -30 683 0
-682 -390 394 0
-682 390 -394 0
-683 -24 30 0
-683 24 -30 0
-688 686 -687 0
-688 -686 687 0
400 404 686 0
-400 -404 686 0
36 42 687 0
-36 -42 687 0
-686 -400 404 0
-686 400 -404 0
-687 -36 42 0
-687 36 -42 0
-692 690 -691 0
-692 -690 691 0
410 414 690 0
-410 -414 690 0
48 54 691 0
-48 -54 691 0
-690 -410 414 0
-690 410 -414 0
-691 -48 54 0
-691 48 -54 0
-696 694 -695 0
-696 -694 695 0
420 424 694 0
-420 -424 694 0
60 66 695 0
-60 -66 695 0
-694 -420 424 0
-694 420 -424 0
-695 -60 66 0
-695 60 -66 0
-700 698 -699 0
-700 -698 699 0
-430 -434 698 0
72 78 699 0
-72 -78 699 0
-698 430 0
-698 434 0
-699 -72 78 0
-699 72 -78 0
-704 702 -703 0
-704 -702 703 0
440 444 702 0
-440 -444 702 0
84 90 703 0
-84 -90 703 0
-702 -440 444 0
-702 440 -444 0
-703 -84 90 0
-703 84 -90 0
-708 706 -707 0
-708 -706 707 0
450 454 706 0
-450 -454 706 0
96 102 707 0
-96 -102 707 0
-706 -450 454 0
-706 450 -454 0
-707 -96 102 0
-707 96 -102 0
-712 710 -711 0
-712 -710 711 0
471 460 710 0
-471 -460 710 0
108 114 711 0
-108 -114 711 0
-710 -471 460 0
-710 471 -460 0
-711 -108 114 0
-711 108 -114 0
-716 714 -715 0
-716 -714 715 0
466 470 714 0
-466 -470 714 0
120 126 715 0
-120 -126 715 0
-714 -466 470 0
-714 466 -470 0
-715 -120 126 0
-715 120 -126 0
-720 718 -719 0
-720 -718 719 0
477 481 718 0
-477 -481 718 0
132 138 719 0
-132 -138 719 0
-718 -477 481 0
-718 477 -481 0
-719 -132 138 0
-719 132 -138 0
-724 722 -723 0
-724 -722 723 0
498 487 722 0
-498 -487 722 0
144 150 723 0
-144 -150 723 0
-722 -498 487 0
-722 498 -487 0
-723 -144 150 0
-723 144 -150 0
-728 726 -727 0
-728 -726 727 0
493 497 726 0
-493 -497 726 0
156 162 727 0
-156 -162 727 0
-726 -493 497 0
-726 493 -497 0
-727 -156 162 0
-727 156 -162 0
-732 730 -731 0
-732 -730 731 0
504 508 730 0
-504 -508 730 0
168 174 731 0
-168 -174 731 0
-730 -504 508 0
-730 504 -508 0
-731 -168 174 0
-731 168 -174 0
-736 734 -735 0
-736 -734 735 0
514 518 734 0
-514 -518 734 0
180 186 735 0
-180 -186 735 0
-734 -514 518 0
-734 514 -518 0
-735 -180 186 0
-735 180 -186 0
-740 738 -739 0
-740 -738 739 0
524 528 738 0
-524 -528 738 0
192 198 739 0
-192 -198 739 0
-738 -524 528 0
-738 524 -528 0
-739 -192 198 0
-739 192 -198 0
-744 742 -743 0
-744 -742 743 0
534 538 742 0
-534 -538 742 0
204 210 743 0
-204 -210 743 0
-742 -534 538 0
-742 534 -538 0
-743 -204 210 0
-743 204 -210 0
-748 746 -747 0
-748 -746 747 0
555 544 746 0
-555 -544 746 0
216 222 747 0
-216 -222 747 0
-746 -555 544 0
-746 555 -544 0
-747 -216 222 0
-747 216 -222 0
-752 750 -751 0
-752 -750 751 0
550 554 750 0
-550 -554 750 0
228 234 751 0
-228 -234 751 0
-750 -550 554 0
-750 550 -554 0
-751 -228 234 0
-751 228 -234 0
-756 754 -755 0
-756 -754 755 0
561 565 754 0
-561 -565 754 0
240 246 755 0
-240 -246 755 0
-754 -561 565 0
-754 561 -565 0
-755 -240 246 0
-755 240 -246 0
-760 758 -759 0
-760 -758 759 0
571 575 758 0
-571 -575 758 0
252 258 759 0
-252 -258 759 0
-758 -571 575 0
-758 571 -575 0
-759 -252 258 0
-759 252 -258 0
-764 762 -763 0
-764 -762 763 0
581 585 762 0
-581 -585 762 0
264 270 763 0
-264 -270 763 0
-762 -581 585 0
-762 581 -585 0
-763 -264 270 0
-763 264 -270 0
-768 766 -767 0
-768 -766 767 0
591 595 766 0
-591 -595 766 0
276 282 767 0
-276 -282 767 0
-766 -591 595 0
-766 591 -595 0
-767 -276 282 0
-767 276 -282 0
-772 770 -771 0
-772 -770 771 0
601 605 770 0
-601 -605 770 0
288 294 771 0
-288 -294 771 0
-770 -601 605 0
-770 601 -605 0
-771 -288 294 0
-771 288 -294 0
-776 774 -775 0
-776 -774 775 0
611 615 774 0
-611 -615 774 0
300 306 775 0
-300 -306 775 0
-774 -611 615 0
-774 611 -615 0
-775 -300 306 0
-775 300 -306 0
-780 778 -779 0
-780 -778 779 0
621 625 778 0
-621 -625 778 0
312 318 779 0
-312 -318 779 0
-778 -621 625 0
-778 621 -625 0
-779 -312 318 0
-779 312 -318 0
-784 782 -783 0
-784 -782 783 0
631 635 782 0
-631 -635 782 0
324 330 783 0
-324 -330 783 0
-782 -631 635 0
-782 631 -635 0
-783 -324 330 0
-783 324 -330 0
-788 786 -787 0
-788 -786 787 0
641 645 786 0
-641 -645 786 0
336 342 787 0
-336 -342 787 0
-786 -641 645 0
-786 641 -645 0
-787 -336 342 0
-787 336 -342 0
-792 790 -791 0
-792 -790 791 0
651 655 790 0
-651 -655 790 0
348 354 791 0
-348 -354 791 0
-790 -651 655 0
-790 651 -655 0
-791 -348 354 0
-791 348 -354 0
-796 794 -795 0
-796 -794 795 0
661 665 794 0
-661 -665 794 0
360 366 795 0
-360 -366 795 0
-794 -661 665 0
-794 661 -665 0
-795 -360 366 0
-795 360 -366 0
-804 -800 803 0
-804 800 -803 0
-800 798 799 0
-798 661 0
-798 665 0
-799 361 0
-799 362 0
-803 801 802 0
-801 360 0
-801 366 0
-802 361 0
-802 362 0
-798 799 800 0
798 -799 800 0
-798 -799 800 0
-661 -665 798 0
-361 -362 799 0
-801 802 803 0
801 -802 803 0
-801 -802 803 0
-360 -366 801 0
-361 -362 802 0

